analyze/results_flowersnark/final_miplib_symretope_if_extended_generating_set_cpx_v802__settings_final_nosym_norestarts__3__neos-525149.mps.gz.sol
solution status: optimal solution found
objective value:                                   61
C0084                                               1 	(obj:1)
C0136                                               1 	(obj:1)
C0184                                               1 	(obj:1)
C0222                                               1 	(obj:1)
C0323                                               1 	(obj:1)
C0355                                               1 	(obj:1)
C0412                                               1 	(obj:1)
C0485                                               1 	(obj:1)
C0570                                               1 	(obj:1)
C0617                                               1 	(obj:1)
C0674                                               1 	(obj:1)
C0713                                               1 	(obj:1)
C0763                                               1 	(obj:1)
C0862                                               1 	(obj:1)
C0906                                               1 	(obj:1)
C0941                                               1 	(obj:1)
C1028                                               1 	(obj:1)
C1115                                               1 	(obj:1)
C1158                                               1 	(obj:1)
C1240                                               1 	(obj:1)
C1269                                               1 	(obj:1)
C1347                                               1 	(obj:1)
C1381                                               1 	(obj:1)
C1426                                               1 	(obj:1)
C1497                                               1 	(obj:1)
C1594                                               1 	(obj:1)
C1611                                               1 	(obj:1)
C1682                                               1 	(obj:1)
C1736                                               1 	(obj:1)
C1829                                               1 	(obj:1)
C1850                                               1 	(obj:1)
C1948                                               1 	(obj:1)
C1979                                               1 	(obj:1)
C2047                                               1 	(obj:1)
C2121                                               1 	(obj:1)
C2186                                               1 	(obj:1)
C2218                                               1 	(obj:1)
C2305                                               1 	(obj:1)
C2360                                               1 	(obj:1)
C2411                                               1 	(obj:1)
C2470                                               1 	(obj:1)
C2508                                               1 	(obj:1)
C2583                                               1 	(obj:1)
C2679                                               1 	(obj:1)
C2685                                               1 	(obj:1)
C2760                                               1 	(obj:1)
C2857                                               1 	(obj:1)
C2864                                               1 	(obj:1)
C2953                                               1 	(obj:1)
C3032                                               1 	(obj:1)
C3079                                               1 	(obj:1)
C3153                                               1 	(obj:1)
C3167                                               1 	(obj:1)
C3278                                               1 	(obj:1)
C3294                                               1 	(obj:1)
C3349                                               1 	(obj:1)
C3451                                               1 	(obj:1)
C3516                                               1 	(obj:1)
C3552                                               1 	(obj:1)
C3615                                               1 	(obj:1)
C0024                                               1 	(obj:1)
